22
Properties=species:S:1:pos:R:3 pbc="F F F"
C       -3.39596839       0.51977748       0.15510693
H       -3.88696839       0.22777748       1.08610693
H       -3.53096839       1.59477748       0.01410693
H       -3.88996839      -0.03222252      -0.65489307
C       -1.90996839       0.18977748       0.15010693
O       -1.57096839      -0.96122252       0.36410693
N       -1.07696839       1.18877748      -0.10589307
H       -1.47296839       2.10077748      -0.28089307
C        0.36303161       1.05477748      -0.16689307
H        0.70103161       1.73377748       0.62510693
C        0.83203161       1.55177748      -1.53189307
H        0.40903161       2.54277748      -1.71489307
H        1.92003161       1.60877748      -1.56789307
H        0.47503161       0.88377748      -2.32189307
C        0.99503161      -0.31222252       0.10810693
O        0.32903161      -1.33722252       0.09610693
N        2.30603161      -0.27222252       0.36410693
H        2.78003161       0.61677748       0.42210693
C        3.06203161      -1.50222252       0.58110693
H        2.38803161      -2.35522252       0.51110693
H        3.54103161      -1.46922252       1.56210693
H        3.84103161      -1.60122252      -0.17989307
