22
Alanine dipeptide C7ax (phi=60, psi=40) - benchmark conformation
N      -0.654    0.234    0.000
C       0.000    0.000    0.000
C       1.123    0.987    0.000
O       1.987    0.654    0.000
C      -0.654   -1.123    0.000
N       2.234    2.123    0.000
C       3.456    2.234    0.000
C       4.123    3.345    0.000
O       5.234    3.987    0.000
H      -1.123   -0.543    0.000
H      -0.987    0.987    0.000
H       0.345   -0.654    0.765
H      -0.345   -1.765    0.654
H      -1.345   -1.456   -0.543
H       0.765   -0.765   -0.654
H       2.012    1.345    0.000
H       4.012    1.987    0.000
H       3.765    2.654    0.876
H       4.456    2.987   -0.876
H       5.987    4.345    0.000
H       2.123    2.987    0.000
H       3.876    3.654    0.000
