22
Properties=species:S:1:pos:R:3 pbc="F F F"
C       -2.81782722       1.07865738       1.45579291
H       -2.76282722       0.67765738       2.95779291
H       -2.39082722       2.08565738       1.40879291
H       -3.87482722       1.08865738       1.17779291
C       -2.05182722       0.13565738       0.58279291
O       -2.48082722      -0.49134262      -0.32520709
N       -0.73182722       0.15965738       0.89779291
H       -0.22282722       0.76965738       1.53079291
C        0.08817278      -0.76134262       0.19079291
H       -0.55782722      -1.51834262      -0.28520709
C        0.90117278      -1.41934262       1.29679291
H        1.51017278      -0.65134262       1.78279291
H        1.55117278      -2.16534262       0.83379291
H        0.24317278      -1.90134262       1.97079291
C        0.98117278      -0.03734262      -0.79420709
O        0.58617278       0.48765738      -1.81520709
N        2.21417278       0.02265738      -0.36520709
H        2.49817278      -0.41134262       0.50879291
C        3.17117278       0.73265738      -1.15920709
H        2.72117278       1.68965738      -1.42920709
H        4.07117278       0.89265738      -0.56120709
H        3.44617278       0.19865738      -2.06420709
