16
Cyclohexene (product) - Ref: arXiv:2601.12630
C 0.3533931508 -0.0881365674 -1.3838707751
C 0.3533931510 -0.0881365673 1.3838707751
C -0.1822840240 -1.2975245621 0.6648547997
C -0.1822840242 -1.2975245621 -0.6648547996
C -0.2139185507 1.2079684806 -0.7736587210
C -0.2139185511 1.2079684805 0.7736587210
H -0.5533815350 -2.1466470733 1.2326015309
H -0.5533815353 -2.1466470733 -1.2326015307
H 0.1294630752 -0.1270470623 -2.4534862574
H 0.1294630757 -0.1270470622 2.4534862574
H 1.4492457393 -0.0776361472 -1.2966597007
H 1.4492457395 -0.0776361468 1.2966597003
H -1.2400957832 1.3303853575 -1.1335622314
H -1.2400957838 1.3303853565 1.1335622309
H 0.3525380196 2.0627247523 -1.1568020085
H 0.3525380185 2.0627247525 1.1568020089
