16
Butadiene + Ethylene (reactants) - Ref: arXiv:2601.12630
C -1.3791661563 -1.7442856509 0.6796924710
C -0.9850158230 1.2936770409 0.5271041059
C -1.5097319310 0.4929101865 -0.3965607704
C -1.3827299361 -0.9760290254 -0.4063824251
C 2.4598943291 -0.2084237848 -0.0526109024
C 2.6451596670 1.0432236503 -0.4475607978
H -2.0614298199 0.9321552163 -1.2263012038
H -1.3033131077 -1.4446507681 -1.3862019183
H -1.2652464210 -2.8205972256 0.6074696672
H -1.1292832110 2.3684598181 0.4875667056
H -1.5065361609 -1.3221873176 1.6725672650
H -0.3818880894 0.9036085458 1.3423336280
H 1.4642641948 -0.6330673522 0.0371535454
H 1.8057332785 1.6877751386 -0.6919829895
H 3.2970031142 -0.8571174910 0.1906463071
H 3.6401817325 1.4684882203 -0.5431895550
